9 17
1 2 0
1 3 1
1 4 0
1 5 0
1 6 0
1 7 0
1 8 1
1 9 1
2 3 1
2 4 0
2 5 0
2 6 0
2 7 1
2 8 1
2 9 1
3 4 0
3 5 1
3 6 1
3 7 0
3 8 0
3 9 0
4 5 1
4 6 0
4 7 0
4 8 1
4 9 1
5 6 1
5 7 1
5 8 0
5 9 0
6 7 1
6 8 0
6 9 0
7 8 0
7 9 1
8 9 1
